peakDumbCharging = 14800; 
Machine = anon_enum(16); 
machineSpeed = [3700,3700,3700,3700,3700,3700,3700,3700,3700,3700,3700,3700,3700,3700,3700,3700]; 
machineLoad = [3700,3700,3700,3700,3700,3700,3700,3700,3700,3700,3700,3700,3700,3700,3700,3700]; 
Car = anon_enum(14); 
demandCar = [6320,3920,18080,6320,3000,4480,680,2440,15440,11960,6080,11720,37400,15840]; 
arrivalCar = [71,67,63,61,56,53,51,38,37,32,31,31,25,23]; 
departureCar = [74,70,70,64,59,57,53,40,61,37,35,38,40,61]; 
